p cnf 10 30
7 2 -9 0
-5 -7 0
1 -10 -9 7 6 0
10 -5 6 7 8 4 -2 -9 -3 1 0
3 5 -7 -10 0
-10 7 6 0
3 2 -5 0
4 -3 2 5 -1 9 6 7 0
5 1 8 6 -9 -7 0
3 -5 4 2 0
-8 7 2 0
-10 8 5 -1 -6 -9 2 -4 7 -3 0
6 -5 0
7 -5 -6 0
9 -4 1 10 -3 -7 2 -8 6 5 0
4 -1 -7 0
-5 8 -6 0
-1 -2 0
1 -3 0
-1 -8 10 4 0
6 -1 10 4 8 9 -2 7 0
-1 10 0
-7 -8 -6 -2 5 1 4 0
3 -4 10 9 1 7 -5 0
10 9 0
-4 -1 -9 3 0
-8 -3 -2 -5 0
-2 -9 0
8 4 0
9 5 10 -6 2 -8 3 0
